Route 1: 0 5 49 98 42 38 69 86 0
Route 2: 0 34 10 43 84 82 32 0
Route 3: 0 18 55 59 17 47 52 23 24 94 0
Route 4: 0 21 97 73 14 16 93 19 57 88 89 0
Route 5: 0 3 48 66 77 64 30 53 68 28 12 0
Route 6: 0 44 62 74 67 80 46 39 26 15 0
Route 7: 0 50 65 45 71 85 7 13 0
Route 8: 0 100 40 29 20 72 54 83 70 58 35 95 0
Route 9: 0 51 6 41 22 96 76 0
Route 10: 0 25 78 11 99 81 36 2 31 79 9 0
Route 11: 0 8 92 63 56 1 91 87 61 37 90 60 33 0
Route 12: 0 27 75 4 0
